Using license file /home/benedond/gurobi.lic
Using gurobi.env file
Set parameter Threads to value 1
Academic license - for non-commercial use only
Changed value of parameter TimeLimit to 300.0
   Prev: inf  Min: 0.0  Max: inf  Default: inf
Gurobi Optimizer version 9.0.1 build v9.0.1rc0 (linux64)
Optimize a model with 1700 rows, 840 columns and 6478 nonzeros
Model fingerprint: 0x35f49f2d
Variable types: 20 continuous, 820 integer (800 binary)
Coefficient statistics:
  Matrix range     [2e-01, 3e+03]
  Objective range  [1e-03, 3e-01]
  Bounds range     [1e+00, 1e+00]
  RHS range        [1e+00, 3e+03]

---------------------------------------------------------------------------
Multi-objectives: starting optimization with 1 objectives ... 
---------------------------------------------------------------------------
---------------------------------------------------------------------------

Multi-objectives: optimize objective 1 (min avg power cons) ...
---------------------------------------------------------------------------

Optimize a model with 1700 rows, 840 columns and 6478 nonzeros
Variable types: 20 continuous, 820 integer (800 binary)
Coefficient statistics:
  Matrix range     [2e-01, 3e+03]
  Objective range  [1e-03, 3e-01]
  Bounds range     [1e+00, 1e+00]
  RHS range        [1e+00, 3e+03]
Presolve removed 1067 rows and 527 columns
Presolve time: 0.05s
Presolved: 633 rows, 313 columns, 4573 nonzeros
Variable types: 17 continuous, 296 integer (279 binary)

Root relaxation: objective 1.524052e+00, 143 iterations, 0.00 seconds

    Nodes    |    Current Node    |     Objective Bounds      |     Work
 Expl Unexpl |  Obj  Depth IntInf | Incumbent    BestBd   Gap | It/Node Time

     0     0    1.52405    0   46          -    1.52405      -     -    0s
     0     0    1.55539    0   49          -    1.55539      -     -    0s
H    0     0                       3.9784063    1.55539  60.9%     -    0s
H    0     0                       3.8922084    1.55539  60.0%     -    0s
     0     0    1.59898    0   57    3.89221    1.59898  58.9%     -    0s
     0     0    1.79295    0   63    3.89221    1.79295  53.9%     -    0s
H    0     0                       3.8839584    1.79295  53.8%     -    0s
     0     0    1.81044    0   62    3.88396    1.81044  53.4%     -    0s
     0     0    1.97528    0   73    3.88396    1.97528  49.1%     -    0s
     0     0    1.99278    0   71    3.88396    1.99278  48.7%     -    0s
     0     0    2.12170    0   69    3.88396    2.12170  45.4%     -    0s
     0     0    2.12863    0   75    3.88396    2.12863  45.2%     -    0s
     0     0    2.14152    0   70    3.88396    2.14152  44.9%     -    0s
     0     0    2.15094    0   76    3.88396    2.15094  44.6%     -    0s
     0     0    2.15258    0   77    3.88396    2.15258  44.6%     -    0s
     0     0    2.15268    0   74    3.88396    2.15268  44.6%     -    0s
     0     0    2.15678    0   69    3.88396    2.15678  44.5%     -    0s
     0     0    2.15771    0   74    3.88396    2.15771  44.4%     -    0s
     0     0    2.15895    0   78    3.88396    2.15895  44.4%     -    0s
     0     0    2.15930    0   74    3.88396    2.15930  44.4%     -    0s
     0     0    2.15951    0   81    3.88396    2.15951  44.4%     -    0s
     0     0    2.15951    0   83    3.88396    2.15951  44.4%     -    0s
     0     0    2.16171    0   81    3.88396    2.16171  44.3%     -    0s
     0     0    2.16317    0   91    3.88396    2.16317  44.3%     -    0s
     0     0    2.16344    0   91    3.88396    2.16344  44.3%     -    0s
     0     0    2.16345    0   91    3.88396    2.16345  44.3%     -    0s
     0     0    2.16800    0   90    3.88396    2.16800  44.2%     -    0s
     0     0    2.16892    0   95    3.88396    2.16892  44.2%     -    0s
     0     0    2.16992    0   97    3.88396    2.16992  44.1%     -    0s
     0     0    2.16997    0   98    3.88396    2.16997  44.1%     -    0s
     0     0    2.17196    0   97    3.88396    2.17196  44.1%     -    0s
H    0     0                       3.6845730    2.17196  41.1%     -    0s
H    0     0                       3.5572709    2.17196  38.9%     -    0s
     0     0    2.17341    0   96    3.55727    2.17341  38.9%     -    0s
     0     0    2.17345    0   96    3.55727    2.17345  38.9%     -    0s
     0     0    2.17538    0   88    3.55727    2.17538  38.8%     -    0s
H    0     0                       3.4448855    2.17538  36.9%     -    0s
     0     0    2.17747    0   74    3.44489    2.17747  36.8%     -    0s
     0     0    2.17766    0   73    3.44489    2.17766  36.8%     -    0s
     0     0    2.17960    0   70    3.44489    2.17960  36.7%     -    0s
     0     0    2.17965    0   74    3.44489    2.17965  36.7%     -    0s
     0     0    2.18113    0   77    3.44489    2.18113  36.7%     -    0s
     0     0    2.18164    0   74    3.44489    2.18164  36.7%     -    0s
     0     0    2.18168    0   80    3.44489    2.18168  36.7%     -    0s
     0     0    2.18173    0   78    3.44489    2.18173  36.7%     -    0s
     0     0    2.18173    0   76    3.44489    2.18173  36.7%     -    0s
     0     2    2.18203    0   76    3.44489    2.18203  36.7%     -    0s
H   82    35                       3.4150417    2.19288  35.8%  37.0    0s
H  139    63                       3.4068855    2.21431  35.0%  34.9    0s
H  395   148                       3.3083021    2.45806  25.7%  31.9    1s
H  620   196                       3.2711146    2.55608  21.9%  36.8    1s
H 1118   336                       3.2575313    2.64697  18.7%  36.7    3s
  2156   461    3.03966   24   45    3.25753    2.66192  18.3%  32.5    5s
* 5005  1422              49       3.2063021    2.84506  11.3%  27.8    7s
H 5010  1275                       3.1663854    2.84587  10.1%  27.8    8s
* 5743  1173              44       3.0968021    2.86588  7.46%  26.6    8s
H 6005   688                       3.0057500    2.87763  4.26%  26.4    8s
* 6615   324              37       3.0049792    2.94849  1.88%  26.1    9s

Cutting planes:
  Learned: 2
  Gomory: 3
  Cover: 9
  Implied bound: 76
  Projected implied bound: 29
  Clique: 2
  MIR: 72
  Flow cover: 63
  GUB cover: 22
  Inf proof: 1
  Mod-K: 3
  RLT: 2
  Relax-and-lift: 73

Explored 6947 nodes (178704 simplex iterations) in 9.55 seconds
Thread count was 1 (of 4 available processors)

Solution count 10: 3.00498 3.00575 3.0968 ... 3.41504

Optimal solution found (tolerance 1.00e-04)
Best objective 3.004979207196e+00, best bound 3.004748057622e+00, gap 0.0077%

---------------------------------------------------------------------------
Multi-objectives: solved in 9.56 seconds, solution count 10

